p cnf 131 441
c p weight -51 1 0
c p weight 51 -1 0
c p weight 55 6.12323399573676603586882014729198302312846062338790031898128063403419218957424163818359375E-17 0
c p weight -55 1 0
c p weight 56 1 0
c p weight -56 1 0
c p weight -53 1 0
c p weight 53 -1 0
c p weight -57 1 0
c p weight 57 -1 0
c p weight -59 1 0
c p weight 59 -1 0
c p weight -62 1 0
c p weight 62 -1 0
c p weight -65 1 0
c p weight 65 -1 0
c p weight -68 1 0
c p weight 68 -1 0
c p weight -71 1 0
c p weight 71 -1 0
c p weight -74 1 0
c p weight 74 -1 0
c p weight -77 1 0
c p weight 77 -1 0
c p weight -80 1 0
c p weight 80 -1 0
c p weight -83 1 0
c p weight 83 -1 0
c p weight -86 1 0
c p weight 86 -1 0
c p weight -89 1 0
c p weight 89 -1 0
c p weight -92 1 0
c p weight 92 -1 0
c p weight -95 1 0
c p weight 95 -1 0
c p weight -98 1 0
c p weight 98 -1 0
c p weight -101 1 0
c p weight 101 -1 0
c p weight -104 1 0
c p weight 104 -1 0
c p weight -107 1 0
c p weight 107 -1 0
c p weight -110 1 0
c p weight 110 -1 0
c p weight -113 1 0
c p weight 113 -1 0
c p weight -116 1 0
c p weight 116 -1 0
c p weight -119 1 0
c p weight 119 -1 0
c p weight -122 1 0
c p weight 122 -1 0
c p weight -125 1 0
c p weight 125 -1 0
c p weight -128 1 0
c p weight 128 -1 0
c p weight 131 0.5 0
c p weight -131 1 0
131 0
-49 0
-47 0
-45 0
-43 0
-41 0
-39 0
-37 0
-35 0
-33 0
-31 0
-29 0
-27 0
-25 0
-23 0
-21 0
-19 0
-17 0
-15 0
-13 0
-11 0
-9 0
-7 0
-5 0
-3 0
-1 0
-51 49 0
-51 50 0
51 -49 -50 0
52 49 -50 0
52 -49 50 0
-52 49 50 0
-52 -49 -50 0
-53 54 0
-53 52 0
-53 -49 0
53 -54 49 -52 0
54 -49 52 0
-54 49 52 0
-55 52 0
54 -55 -49 0
-54 -55 49 0
54 55 49 -52 0
-54 55 -49 -52 0
-56 52 0
54 -56 49 0
-54 -56 -49 0
54 56 -49 -52 0
-54 56 49 -52 0
-57 54 0
-57 52 0
57 -54 -52 0
58 54 -52 0
58 -54 52 0
-58 54 52 0
-58 -54 -52 0
-59 54 0
-59 48 0
-59 47 -58 0
-59 -47 58 0
59 -54 47 58 -48 0
59 -54 -47 -58 -48 0
61 54 -47 0
61 -54 47 0
-61 54 47 0
-61 -54 -47 0
60 58 -48 0
60 -58 48 0
-60 58 48 0
-60 -58 -48 0
-62 61 0
-62 46 0
-62 45 -48 0
-62 -45 48 0
62 -61 45 48 -46 0
62 -61 -45 -48 -46 0
64 61 -45 0
64 -61 45 0
-64 61 45 0
-64 -61 -45 0
63 48 -46 0
63 -48 46 0
-63 48 46 0
-63 -48 -46 0
-65 64 0
-65 44 0
-65 43 -46 0
-65 -43 46 0
65 -64 43 46 -44 0
65 -64 -43 -46 -44 0
67 64 -43 0
67 -64 43 0
-67 64 43 0
-67 -64 -43 0
66 46 -44 0
66 -46 44 0
-66 46 44 0
-66 -46 -44 0
-68 67 0
-68 42 0
-68 41 -44 0
-68 -41 44 0
68 -67 41 44 -42 0
68 -67 -41 -44 -42 0
70 67 -41 0
70 -67 41 0
-70 67 41 0
-70 -67 -41 0
69 44 -42 0
69 -44 42 0
-69 44 42 0
-69 -44 -42 0
-71 70 0
-71 40 0
-71 39 -42 0
-71 -39 42 0
71 -70 39 42 -40 0
71 -70 -39 -42 -40 0
73 70 -39 0
73 -70 39 0
-73 70 39 0
-73 -70 -39 0
72 42 -40 0
72 -42 40 0
-72 42 40 0
-72 -42 -40 0
-74 73 0
-74 38 0
-74 37 -40 0
-74 -37 40 0
74 -73 37 40 -38 0
74 -73 -37 -40 -38 0
76 73 -37 0
76 -73 37 0
-76 73 37 0
-76 -73 -37 0
75 40 -38 0
75 -40 38 0
-75 40 38 0
-75 -40 -38 0
-77 76 0
-77 36 0
-77 35 -38 0
-77 -35 38 0
77 -76 35 38 -36 0
77 -76 -35 -38 -36 0
79 76 -35 0
79 -76 35 0
-79 76 35 0
-79 -76 -35 0
78 38 -36 0
78 -38 36 0
-78 38 36 0
-78 -38 -36 0
-80 79 0
-80 34 0
-80 33 -36 0
-80 -33 36 0
80 -79 33 36 -34 0
80 -79 -33 -36 -34 0
82 79 -33 0
82 -79 33 0
-82 79 33 0
-82 -79 -33 0
81 36 -34 0
81 -36 34 0
-81 36 34 0
-81 -36 -34 0
-83 82 0
-83 32 0
-83 31 -34 0
-83 -31 34 0
83 -82 31 34 -32 0
83 -82 -31 -34 -32 0
85 82 -31 0
85 -82 31 0
-85 82 31 0
-85 -82 -31 0
84 34 -32 0
84 -34 32 0
-84 34 32 0
-84 -34 -32 0
-86 85 0
-86 30 0
-86 29 -32 0
-86 -29 32 0
86 -85 29 32 -30 0
86 -85 -29 -32 -30 0
88 85 -29 0
88 -85 29 0
-88 85 29 0
-88 -85 -29 0
87 32 -30 0
87 -32 30 0
-87 32 30 0
-87 -32 -30 0
-89 88 0
-89 28 0
-89 27 -30 0
-89 -27 30 0
89 -88 27 30 -28 0
89 -88 -27 -30 -28 0
91 88 -27 0
91 -88 27 0
-91 88 27 0
-91 -88 -27 0
90 30 -28 0
90 -30 28 0
-90 30 28 0
-90 -30 -28 0
-92 91 0
-92 26 0
-92 25 -28 0
-92 -25 28 0
92 -91 25 28 -26 0
92 -91 -25 -28 -26 0
94 91 -25 0
94 -91 25 0
-94 91 25 0
-94 -91 -25 0
93 28 -26 0
93 -28 26 0
-93 28 26 0
-93 -28 -26 0
-95 94 0
-95 24 0
-95 23 -26 0
-95 -23 26 0
95 -94 23 26 -24 0
95 -94 -23 -26 -24 0
97 94 -23 0
97 -94 23 0
-97 94 23 0
-97 -94 -23 0
96 26 -24 0
96 -26 24 0
-96 26 24 0
-96 -26 -24 0
-98 97 0
-98 22 0
-98 21 -24 0
-98 -21 24 0
98 -97 21 24 -22 0
98 -97 -21 -24 -22 0
100 97 -21 0
100 -97 21 0
-100 97 21 0
-100 -97 -21 0
99 24 -22 0
99 -24 22 0
-99 24 22 0
-99 -24 -22 0
-101 100 0
-101 20 0
-101 19 -22 0
-101 -19 22 0
101 -100 19 22 -20 0
101 -100 -19 -22 -20 0
103 100 -19 0
103 -100 19 0
-103 100 19 0
-103 -100 -19 0
102 22 -20 0
102 -22 20 0
-102 22 20 0
-102 -22 -20 0
-104 103 0
-104 18 0
-104 17 -20 0
-104 -17 20 0
104 -103 17 20 -18 0
104 -103 -17 -20 -18 0
106 103 -17 0
106 -103 17 0
-106 103 17 0
-106 -103 -17 0
105 20 -18 0
105 -20 18 0
-105 20 18 0
-105 -20 -18 0
-107 106 0
-107 16 0
-107 15 -18 0
-107 -15 18 0
107 -106 15 18 -16 0
107 -106 -15 -18 -16 0
109 106 -15 0
109 -106 15 0
-109 106 15 0
-109 -106 -15 0
108 18 -16 0
108 -18 16 0
-108 18 16 0
-108 -18 -16 0
-110 109 0
-110 14 0
-110 13 -16 0
-110 -13 16 0
110 -109 13 16 -14 0
110 -109 -13 -16 -14 0
112 109 -13 0
112 -109 13 0
-112 109 13 0
-112 -109 -13 0
111 16 -14 0
111 -16 14 0
-111 16 14 0
-111 -16 -14 0
-113 112 0
-113 12 0
-113 11 -14 0
-113 -11 14 0
113 -112 11 14 -12 0
113 -112 -11 -14 -12 0
115 112 -11 0
115 -112 11 0
-115 112 11 0
-115 -112 -11 0
114 14 -12 0
114 -14 12 0
-114 14 12 0
-114 -14 -12 0
-116 115 0
-116 10 0
-116 9 -12 0
-116 -9 12 0
116 -115 9 12 -10 0
116 -115 -9 -12 -10 0
118 115 -9 0
118 -115 9 0
-118 115 9 0
-118 -115 -9 0
117 12 -10 0
117 -12 10 0
-117 12 10 0
-117 -12 -10 0
-119 118 0
-119 8 0
-119 7 -10 0
-119 -7 10 0
119 -118 7 10 -8 0
119 -118 -7 -10 -8 0
121 118 -7 0
121 -118 7 0
-121 118 7 0
-121 -118 -7 0
120 10 -8 0
120 -10 8 0
-120 10 8 0
-120 -10 -8 0
-122 121 0
-122 6 0
-122 5 -8 0
-122 -5 8 0
122 -121 5 8 -6 0
122 -121 -5 -8 -6 0
124 121 -5 0
124 -121 5 0
-124 121 5 0
-124 -121 -5 0
123 8 -6 0
123 -8 6 0
-123 8 6 0
-123 -8 -6 0
-125 124 0
-125 4 0
-125 3 -6 0
-125 -3 6 0
125 -124 3 6 -4 0
125 -124 -3 -6 -4 0
127 124 -3 0
127 -124 3 0
-127 124 3 0
-127 -124 -3 0
126 6 -4 0
126 -6 4 0
-126 6 4 0
-126 -6 -4 0
-128 127 0
-128 2 0
-128 1 -4 0
-128 -1 4 0
128 -127 1 4 -2 0
128 -127 -1 -4 -2 0
130 127 -1 0
130 -127 1 0
-130 127 1 0
-130 -127 -1 0
129 4 -2 0
129 -4 2 0
-129 4 2 0
-129 -4 -2 0
-130 0
-127 0
-129 0
-124 0
-126 0
-121 0
-123 0
-118 0
-120 0
-115 0
-117 0
-112 0
-114 0
-109 0
-111 0
-106 0
-108 0
-103 0
-105 0
-100 0
-102 0
-97 0
-99 0
-94 0
-96 0
-91 0
-93 0
-88 0
-90 0
-85 0
-87 0
-82 0
-84 0
-79 0
-81 0
-76 0
-78 0
-73 0
-75 0
-70 0
-72 0
-67 0
-69 0
-64 0
-66 0
-61 0
-63 0
-54 0
-60 0
